NAME: instance_113
TYPE: TSP
DIMENSION: 20
EDGE_WEIGHT_TYPE: EUC_2D
NODE_COORD_SECTION
0 8.13 81.59
1 44.21 4.17
2 64.41 25.36
3 87.89 91.70
4 50.39 9.36
5 59.94 58.89
6 8.58 17.10
7 0.41 2.23
8 6.65 46.10
9 63.84 74.73
10 87.57 5.34
11 40.01 53.56
12 98.12 40.56
13 39.13 1.74
14 99.52 4.02
15 70.90 89.48
16 62.74 81.22
17 6.11 42.45
18 14.17 40.21
19 25.03 11.40
EOF
